10	5
0	5	1	4	2	3	5
1	2	9	6
2	1	9
3	1	8
4	4	9	7	6	10
5	2	9	6
6	1	11
7	1	11
8	1	11
9	1	11
10	1	11
11	0
0	0	0	0	0	0	0
1	9	5	4	1	2	4
2	2	4	4	3	1	4
3	4	1	3	5	3	4
4	2	0	0	5	0	0
5	10	5	1	4	5	4
6	3	2	3	3	0	5
7	4	4	3	2	4	1
8	4	0	0	0	0	1
9	7	5	0	3	2	5
10	2	0	2	3	5	0
11	0	0	0	0	0	0
5	5	5	5	5
